100
36 0
14 0
31 1
27 3
40 1
29 4
21 3
9 4
21 0
41 1
29 3
5 4
23 2
16 3
1 4
11 0
43 4
23 4
28 4
41 3
31 0
34 0
9 3
22 4
14 2
10 3
21 2
7 3
10 0
13 4
28 0
37 0
0 4
4 2
18 0
39 4
4 0
3 3
39 1
2 4
1 2
42 1
6 0
25 4
42 0
7 1
15 4
30 4
6 4
38 1
34 1
43 0
34 4
36 4
40 4
12 3
28 3
7 0
13 2
20 1
33 3
30 3
33 4
6 3
18 1
13 0
20 4
15 3
29 0
3 2
37 3
32 4
33 0
32 0
23 1
15 0
27 4
25 0
28 1
22 0
36 1
15 1
12 0
27 1
41 0
37 1
40 0
41 4
10 2
20 3
1 0
20 0
3 4
23 0
38 4
31 3
24 1
16 0
24 4
2 1

